\ENCODING=ISO-8859-1
\Problem name: bpSARP

Maximize
 obj1: - 0.619 x(0,37,0) - 0.619 x(0,37,1) - 0.619 x(0,70,0) - 0.619 x(0,70,1)
       - 1.631 x(0,71,0) - 1.631 x(0,71,1) - 1.125 x(0,74,0) - 1.125 x(0,74,1)
       - 1.125 x(0,107,0) - 1.125 x(0,107,1) - 1.631 x(0,108,0)
       - 1.631 x(0,108,1) - 4.989 x(0,111,0) - 4.989 x(0,111,1)
       - 4.989 x(0,144,0) - 4.989 x(0,144,1) - 1.631 x(0,145,0)
       - 1.631 x(0,145,1) - 0.297 x(0,148,0) - 0.297 x(0,148,1)
       - 0.297 x(0,181,0) - 0.297 x(0,181,1) - 1.631 x(0,182,0)
       - 1.631 x(0,182,1) + 3.981 x(0,187,0) + 3.981 x(0,188,1)
       + 6.098 x(21,37,0) + 6.098 x(21,37,1) + 6.098 x(21,70,0)
       + 6.098 x(21,70,1) + 5.224 x(21,71,0) + 5.224 x(21,71,1)
       + 5.27 x(21,74,0) + 5.27 x(21,74,1) + 5.27 x(21,107,0)
       + 5.27 x(21,107,1) + 5.224 x(21,108,0) + 5.224 x(21,108,1)
       + 2.096 x(21,111,0) + 2.096 x(21,111,1) + 2.096 x(21,144,0)
       + 2.096 x(21,144,1) + 5.224 x(21,145,0) + 5.224 x(21,145,1)
       + 6.742 x(21,148,0) + 6.742 x(21,148,1) + 6.742 x(21,181,0)
       + 6.742 x(21,181,1) + 5.224 x(21,182,0) + 5.224 x(21,182,1)
       + 10.652 x(21,187,0) + 10.652 x(21,188,1) + 5.868 x(22,37,0)
       + 5.868 x(22,37,1) + 5.868 x(22,70,0) + 5.868 x(22,70,1)
       + 4.856 x(22,71,0) + 4.856 x(22,71,1) + 5.362 x(22,74,0)
       + 5.362 x(22,74,1) + 5.362 x(22,107,0) + 5.362 x(22,107,1)
       + 4.856 x(22,108,0) + 4.856 x(22,108,1) + 1.498 x(22,111,0)
       + 1.498 x(22,111,1) + 1.498 x(22,144,0) + 1.498 x(22,144,1)
       + 4.856 x(22,145,0) + 4.856 x(22,145,1) + 6.19 x(22,148,0)
       + 6.19 x(22,148,1) + 6.19 x(22,181,0) + 6.19 x(22,181,1)
       + 4.856 x(22,182,0) + 4.856 x(22,182,1) + 10.468 x(22,187,0)
       + 10.468 x(22,188,1) + 0.0609999999999999 x(37,111,0)
       + 0.0609999999999999 x(37,111,1) + 0.0609999999999999 x(37,144,0)
       + 0.0609999999999999 x(37,144,1) + 3.189 x(37,145,0) + 3.189 x(37,145,1)
       + 4.615 x(37,148,0) + 4.615 x(37,148,1) + 4.615 x(37,181,0)
       + 4.615 x(37,181,1) + 5.121 x(37,187,0) + 5.121 x(37,188,1)
       + 10.226 x(70,111,0) + 10.226 x(70,111,1) + 13.814 x(70,187,0)
       + 13.814 x(70,188,1) + 9.444 x(71,111,0) + 9.444 x(71,111,1)
       + 13.998 x(71,148,0) + 13.998 x(71,148,1) + 14.504 x(71,187,0)
       + 14.504 x(71,188,1) - 1.645 x(74,111,0) - 1.645 x(74,111,1)
       - 1.645 x(74,144,0) - 1.645 x(74,144,1) + 1.299 x(74,145,0)
       + 1.299 x(74,145,1) + 5.577 x(74,187,0) + 5.577 x(74,188,1)
       + 8.336 x(107,111,0) + 8.336 x(107,111,1) + 11.924 x(107,187,0)
       + 11.924 x(107,188,1) + 6.496 x(108,111,0) + 6.496 x(108,111,1)
       + 13.718 x(108,187,0) + 13.718 x(108,188,1) + 5.634 x(111,187,0)
       + 5.634 x(111,188,1) + 13.591 x(144,187,0) + 13.591 x(144,188,1)
       + 12.671 x(145,187,0) + 12.671 x(145,188,1) - 0.955 x(148,111,0)
       - 0.955 x(148,111,1) - 0.955 x(148,144,0) - 0.955 x(148,144,1)
       + 2.173 x(148,145,0) + 2.173 x(148,145,1) + 5.577 x(148,187,0)
       + 5.577 x(148,188,1) + 9.21 x(181,111,0) + 9.21 x(181,111,1)
       + 12.798 x(181,187,0) + 12.798 x(181,188,1) + 7.876 x(182,111,0)
       + 7.876 x(182,111,1) + 14.408 x(182,187,0) + 14.408 x(182,188,1)
       - 6.67 x(185,0,0) - 6.67 x(185,21,0) - 5.52 x(185,22,0)
       - 4.186 x(185,37,0) - 4.186 x(185,70,0) - 3.496 x(185,71,0)
       - 5.796 x(185,74,0) - 5.796 x(185,107,0) - 3.496 x(185,108,0)
       - 3.956 x(185,111,0) - 3.956 x(185,144,0) - 3.496 x(185,145,0)
       - 2.622 x(185,148,0) - 2.622 x(185,181,0) - 3.496 x(185,182,0)
       - 9.568 x(186,0,1) - 9.568 x(186,21,1) - 9.476 x(186,22,1)
       - 5.704 x(186,37,1) - 5.704 x(186,70,1) - 5.98 x(186,71,1)
       - 4.232 x(186,74,1) - 4.232 x(186,107,1) - 5.98 x(186,108,1)
       - 7.912 x(186,111,1) - 7.912 x(186,144,1) - 5.98 x(186,145,1)
       - 7.452 x(186,148,1) - 7.452 x(186,181,1) - 5.98 x(186,182,1) + 0 u(0)
       + 0 u(1) + 0 uf(0) + 0 uf(1)
Subject To
 Constraint1_0:     x(0,37,0) + x(0,37,1) + x(0,70,0) + x(0,70,1) + x(0,71,0)
                    + x(0,71,1) + x(0,74,0) + x(0,74,1) + x(0,107,0)
                    + x(0,107,1) + x(0,108,0) + x(0,108,1) + x(0,111,0)
                    + x(0,111,1) + x(0,144,0) + x(0,144,1) + x(0,145,0)
                    + x(0,145,1) + x(0,148,0) + x(0,148,1) + x(0,181,0)
                    + x(0,181,1) + x(0,182,0) + x(0,182,1) + x(0,187,0)
                    + x(0,188,1) + x(21,37,0) + x(21,37,1) + x(21,70,0)
                    + x(21,70,1) + x(21,71,0) + x(21,71,1) + x(21,74,0)
                    + x(21,74,1) + x(21,107,0) + x(21,107,1) + x(21,108,0)
                    + x(21,108,1) + x(21,111,0) + x(21,111,1) + x(21,144,0)
                    + x(21,144,1) + x(21,145,0) + x(21,145,1) + x(21,148,0)
                    + x(21,148,1) + x(21,181,0) + x(21,181,1) + x(21,182,0)
                    + x(21,182,1) + x(21,187,0) + x(21,188,1) + x(22,37,0)
                    + x(22,37,1) + x(22,70,0) + x(22,70,1) + x(22,71,0)
                    + x(22,71,1) + x(22,74,0) + x(22,74,1) + x(22,107,0)
                    + x(22,107,1) + x(22,108,0) + x(22,108,1) + x(22,111,0)
                    + x(22,111,1) + x(22,144,0) + x(22,144,1) + x(22,145,0)
                    + x(22,145,1) + x(22,148,0) + x(22,148,1) + x(22,181,0)
                    + x(22,181,1) + x(22,182,0) + x(22,182,1) + x(22,187,0)
                    + x(22,188,1)  = 1
 Constraint1_1:     x(37,111,0) + x(37,111,1) + x(37,144,0) + x(37,144,1)
                    + x(37,145,0) + x(37,145,1) + x(37,148,0) + x(37,148,1)
                    + x(37,181,0) + x(37,181,1) + x(37,187,0) + x(37,188,1)
                    + x(70,111,0) + x(70,111,1) + x(70,187,0) + x(70,188,1)
                    + x(71,111,0) + x(71,111,1) + x(71,148,0) + x(71,148,1)
                    + x(71,187,0) + x(71,188,1)  = 1
 Constraint1_2:     x(74,111,0) + x(74,111,1) + x(74,144,0) + x(74,144,1)
                    + x(74,145,0) + x(74,145,1) + x(74,187,0) + x(74,188,1)
                    + x(107,111,0) + x(107,111,1) + x(107,187,0) + x(107,188,1)
                    + x(108,111,0) + x(108,111,1) + x(108,187,0) + x(108,188,1)
                     = 1
 Constraint1_3:     x(111,187,0) + x(111,188,1) + x(144,187,0) + x(144,188,1)
                    + x(145,187,0) + x(145,188,1)  = 1
 Constraint1_4:     x(148,111,0) + x(148,111,1) + x(148,144,0) + x(148,144,1)
                    + x(148,145,0) + x(148,145,1) + x(148,187,0) + x(148,188,1)
                    + x(181,111,0) + x(181,111,1) + x(181,187,0) + x(181,188,1)
                    + x(182,111,0) + x(182,111,1) + x(182,187,0) + x(182,188,1)
                     = 1
 Constraint2_0:     x(185,0,0) + x(185,21,0) + x(185,22,0) + x(186,0,1)
                    + x(186,21,1) + x(186,22,1)  = 1
 Constraint2_1:     x(0,37,0) + x(0,37,1) + x(0,70,0) + x(0,70,1) + x(0,71,0)
                    + x(0,71,1) + x(21,37,0) + x(21,37,1) + x(21,70,0)
                    + x(21,70,1) + x(21,71,0) + x(21,71,1) + x(22,37,0)
                    + x(22,37,1) + x(22,70,0) + x(22,70,1) + x(22,71,0)
                    + x(22,71,1) + x(185,37,0) + x(185,70,0) + x(185,71,0)
                    + x(186,37,1) + x(186,70,1) + x(186,71,1)  = 1
 Constraint2_2:     x(0,74,0) + x(0,74,1) + x(0,107,0) + x(0,107,1)
                    + x(0,108,0) + x(0,108,1) + x(21,74,0) + x(21,74,1)
                    + x(21,107,0) + x(21,107,1) + x(21,108,0) + x(21,108,1)
                    + x(22,74,0) + x(22,74,1) + x(22,107,0) + x(22,107,1)
                    + x(22,108,0) + x(22,108,1) + x(185,74,0) + x(185,107,0)
                    + x(185,108,0) + x(186,74,1) + x(186,107,1) + x(186,108,1)
                     = 1
 Constraint2_3:     x(0,111,0) + x(0,111,1) + x(0,144,0) + x(0,144,1)
                    + x(0,145,0) + x(0,145,1) + x(21,111,0) + x(21,111,1)
                    + x(21,144,0) + x(21,144,1) + x(21,145,0) + x(21,145,1)
                    + x(22,111,0) + x(22,111,1) + x(22,144,0) + x(22,144,1)
                    + x(22,145,0) + x(22,145,1) + x(37,111,0) + x(37,111,1)
                    + x(37,144,0) + x(37,144,1) + x(37,145,0) + x(37,145,1)
                    + x(70,111,0) + x(70,111,1) + x(71,111,0) + x(71,111,1)
                    + x(74,111,0) + x(74,111,1) + x(74,144,0) + x(74,144,1)
                    + x(74,145,0) + x(74,145,1) + x(107,111,0) + x(107,111,1)
                    + x(108,111,0) + x(108,111,1) + x(148,111,0) + x(148,111,1)
                    + x(148,144,0) + x(148,144,1) + x(148,145,0) + x(148,145,1)
                    + x(181,111,0) + x(181,111,1) + x(182,111,0) + x(182,111,1)
                    + x(185,111,0) + x(185,144,0) + x(185,145,0) + x(186,111,1)
                    + x(186,144,1) + x(186,145,1)  = 1
 Constraint2_4:     x(0,148,0) + x(0,148,1) + x(0,181,0) + x(0,181,1)
                    + x(0,182,0) + x(0,182,1) + x(21,148,0) + x(21,148,1)
                    + x(21,181,0) + x(21,181,1) + x(21,182,0) + x(21,182,1)
                    + x(22,148,0) + x(22,148,1) + x(22,181,0) + x(22,181,1)
                    + x(22,182,0) + x(22,182,1) + x(37,148,0) + x(37,148,1)
                    + x(37,181,0) + x(37,181,1) + x(71,148,0) + x(71,148,1)
                    + x(185,148,0) + x(185,181,0) + x(185,182,0) + x(186,148,1)
                    + x(186,181,1) + x(186,182,1)  = 1
 Constraint3_0:     x(185,0,0) + x(185,21,0) + x(185,22,0) + x(185,37,0)
                    + x(185,70,0) + x(185,71,0) + x(185,74,0) + x(185,107,0)
                    + x(185,108,0) + x(185,111,0) + x(185,144,0) + x(185,145,0)
                    + x(185,148,0) + x(185,181,0) + x(185,182,0) + x(185,187,0)
                     = 1
 Constraint3_1:     x(186,0,1) + x(186,21,1) + x(186,22,1) + x(186,37,1)
                    + x(186,70,1) + x(186,71,1) + x(186,74,1) + x(186,107,1)
                    + x(186,108,1) + x(186,111,1) + x(186,144,1) + x(186,145,1)
                    + x(186,148,1) + x(186,181,1) + x(186,182,1) + x(186,188,1)
                     = 1
 Constraint4_0:     x(0,187,0) + x(21,187,0) + x(22,187,0) + x(37,187,0)
                    + x(70,187,0) + x(71,187,0) + x(74,187,0) + x(107,187,0)
                    + x(108,187,0) + x(111,187,0) + x(144,187,0) + x(145,187,0)
                    + x(148,187,0) + x(181,187,0) + x(182,187,0) + x(185,187,0)
                     = 1
 Constraint4_1:     x(0,188,1) + x(21,188,1) + x(22,188,1) + x(37,188,1)
                    + x(70,188,1) + x(71,188,1) + x(74,188,1) + x(107,188,1)
                    + x(108,188,1) + x(111,188,1) + x(144,188,1) + x(145,188,1)
                    + x(148,188,1) + x(181,188,1) + x(182,188,1) + x(186,188,1)
                     = 1
 Constraint5_5:     <= 1
 Constraint5_6:     <= 1
 Constraint5_7:     <= 1
 Constraint5_8:     x(21,37,0) + x(21,37,1) + x(21,70,0) + x(21,70,1)
                    + x(21,71,0) + x(21,71,1) + x(21,74,0) + x(21,74,1)
                    + x(21,107,0) + x(21,107,1) + x(21,108,0) + x(21,108,1)
                    + x(21,111,0) + x(21,111,1) + x(21,144,0) + x(21,144,1)
                    + x(21,145,0) + x(21,145,1) + x(21,148,0) + x(21,148,1)
                    + x(21,181,0) + x(21,181,1) + x(21,182,0) + x(21,182,1)
                    + x(21,187,0) + x(21,188,1) + x(22,37,0) + x(22,37,1)
                    + x(22,70,0) + x(22,70,1) + x(22,71,0) + x(22,71,1)
                    + x(22,74,0) + x(22,74,1) + x(22,107,0) + x(22,107,1)
                    + x(22,108,0) + x(22,108,1) + x(22,111,0) + x(22,111,1)
                    + x(22,144,0) + x(22,144,1) + x(22,145,0) + x(22,145,1)
                    + x(22,148,0) + x(22,148,1) + x(22,181,0) + x(22,181,1)
                    + x(22,182,0) + x(22,182,1) + x(22,187,0) + x(22,188,1)
                    <= 1
 Constraint5_9:     <= 1
 Constraint5_10:    x(70,111,0) + x(70,111,1) + x(70,187,0) + x(70,188,1)
                    + x(71,111,0) + x(71,111,1) + x(71,148,0) + x(71,148,1)
                    + x(71,187,0) + x(71,188,1) + x(107,111,0) + x(107,111,1)
                    + x(107,187,0) + x(107,188,1) + x(108,111,0) + x(108,111,1)
                    + x(108,187,0) + x(108,188,1) + x(144,187,0) + x(144,188,1)
                    + x(145,187,0) + x(145,188,1) + x(181,111,0) + x(181,111,1)
                    + x(181,187,0) + x(181,188,1) + x(182,111,0) + x(182,111,1)
                    + x(182,187,0) + x(182,188,1) <= 1
 Constraint5_11:    <= 1
 Constraint5_12:    <= 1
 Constraint5_13:    <= 1
 Constraint5_14:    <= 1
 Constraint5_15:    <= 1
 Constraint5_16:    <= 1
 Constraint6_0_0:   x(0,37,0) + x(0,70,0) + x(0,71,0) + x(0,74,0) + x(0,107,0)
                    + x(0,108,0) + x(0,111,0) + x(0,144,0) + x(0,145,0)
                    + x(0,148,0) + x(0,181,0) + x(0,182,0) + x(0,187,0)
                    - x(185,0,0)  = 0
 Constraint6_0_1:   x(0,37,1) + x(0,70,1) + x(0,71,1) + x(0,74,1) + x(0,107,1)
                    + x(0,108,1) + x(0,111,1) + x(0,144,1) + x(0,145,1)
                    + x(0,148,1) + x(0,181,1) + x(0,182,1) + x(0,188,1)
                    - x(186,0,1)  = 0
 Constraint6_1_0:    = 0
 Constraint6_1_1:    = 0
 Constraint6_2_0:    = 0
 Constraint6_2_1:    = 0
 Constraint6_3_0:    = 0
 Constraint6_3_1:    = 0
 Constraint6_4_0:    = 0
 Constraint6_4_1:    = 0
 Constraint6_5_0:    = 0
 Constraint6_5_1:    = 0
 Constraint6_6_0:    = 0
 Constraint6_6_1:    = 0
 Constraint6_7_0:    = 0
 Constraint6_7_1:    = 0
 Constraint6_8_0:    = 0
 Constraint6_8_1:    = 0
 Constraint6_9_0:    = 0
 Constraint6_9_1:    = 0
 Constraint6_10_0:   = 0
 Constraint6_10_1:   = 0
 Constraint6_11_0:   = 0
 Constraint6_11_1:   = 0
 Constraint6_12_0:   = 0
 Constraint6_12_1:   = 0
 Constraint6_13_0:   = 0
 Constraint6_13_1:   = 0
 Constraint6_14_0:   = 0
 Constraint6_14_1:   = 0
 Constraint6_15_0:   = 0
 Constraint6_15_1:   = 0
 Constraint6_16_0:   = 0
 Constraint6_16_1:   = 0
 Constraint6_17_0:   = 0
 Constraint6_17_1:   = 0
 Constraint6_18_0:   = 0
 Constraint6_18_1:   = 0
 Constraint6_19_0:   = 0
 Constraint6_19_1:   = 0
 Constraint6_20_0:   = 0
 Constraint6_20_1:   = 0
 Constraint6_21_0:  x(21,37,0) + x(21,70,0) + x(21,71,0) + x(21,74,0)
                    + x(21,107,0) + x(21,108,0) + x(21,111,0) + x(21,144,0)
                    + x(21,145,0) + x(21,148,0) + x(21,181,0) + x(21,182,0)
                    + x(21,187,0) - x(185,21,0)  = 0
 Constraint6_21_1:  x(21,37,1) + x(21,70,1) + x(21,71,1) + x(21,74,1)
                    + x(21,107,1) + x(21,108,1) + x(21,111,1) + x(21,144,1)
                    + x(21,145,1) + x(21,148,1) + x(21,181,1) + x(21,182,1)
                    + x(21,188,1) - x(186,21,1)  = 0
 Constraint6_22_0:  x(22,37,0) + x(22,70,0) + x(22,71,0) + x(22,74,0)
                    + x(22,107,0) + x(22,108,0) + x(22,111,0) + x(22,144,0)
                    + x(22,145,0) + x(22,148,0) + x(22,181,0) + x(22,182,0)
                    + x(22,187,0) - x(185,22,0)  = 0
 Constraint6_22_1:  x(22,37,1) + x(22,70,1) + x(22,71,1) + x(22,74,1)
                    + x(22,107,1) + x(22,108,1) + x(22,111,1) + x(22,144,1)
                    + x(22,145,1) + x(22,148,1) + x(22,181,1) + x(22,182,1)
                    + x(22,188,1) - x(186,22,1)  = 0
 Constraint6_23_0:   = 0
 Constraint6_23_1:   = 0
 Constraint6_24_0:   = 0
 Constraint6_24_1:   = 0
 Constraint6_25_0:   = 0
 Constraint6_25_1:   = 0
 Constraint6_26_0:   = 0
 Constraint6_26_1:   = 0
 Constraint6_27_0:   = 0
 Constraint6_27_1:   = 0
 Constraint6_28_0:   = 0
 Constraint6_28_1:   = 0
 Constraint6_29_0:   = 0
 Constraint6_29_1:   = 0
 Constraint6_30_0:   = 0
 Constraint6_30_1:   = 0
 Constraint6_31_0:   = 0
 Constraint6_31_1:   = 0
 Constraint6_32_0:   = 0
 Constraint6_32_1:   = 0
 Constraint6_33_0:   = 0
 Constraint6_33_1:   = 0
 Constraint6_34_0:   = 0
 Constraint6_34_1:   = 0
 Constraint6_35_0:   = 0
 Constraint6_35_1:   = 0
 Constraint6_36_0:   = 0
 Constraint6_36_1:   = 0
 Constraint6_37_0:  - x(0,37,0) - x(21,37,0) - x(22,37,0) + x(37,111,0)
                    + x(37,144,0) + x(37,145,0) + x(37,148,0) + x(37,181,0)
                    + x(37,187,0) - x(185,37,0)  = 0
 Constraint6_37_1:  - x(0,37,1) - x(21,37,1) - x(22,37,1) + x(37,111,1)
                    + x(37,144,1) + x(37,145,1) + x(37,148,1) + x(37,181,1)
                    + x(37,188,1) - x(186,37,1)  = 0
 Constraint6_38_0:   = 0
 Constraint6_38_1:   = 0
 Constraint6_39_0:   = 0
 Constraint6_39_1:   = 0
 Constraint6_40_0:   = 0
 Constraint6_40_1:   = 0
 Constraint6_41_0:   = 0
 Constraint6_41_1:   = 0
 Constraint6_42_0:   = 0
 Constraint6_42_1:   = 0
 Constraint6_43_0:   = 0
 Constraint6_43_1:   = 0
 Constraint6_44_0:   = 0
 Constraint6_44_1:   = 0
 Constraint6_45_0:   = 0
 Constraint6_45_1:   = 0
 Constraint6_46_0:   = 0
 Constraint6_46_1:   = 0
 Constraint6_47_0:   = 0
 Constraint6_47_1:   = 0
 Constraint6_48_0:   = 0
 Constraint6_48_1:   = 0
 Constraint6_49_0:   = 0
 Constraint6_49_1:   = 0
 Constraint6_50_0:   = 0
 Constraint6_50_1:   = 0
 Constraint6_51_0:   = 0
 Constraint6_51_1:   = 0
 Constraint6_52_0:   = 0
 Constraint6_52_1:   = 0
 Constraint6_53_0:   = 0
 Constraint6_53_1:   = 0
 Constraint6_54_0:   = 0
 Constraint6_54_1:   = 0
 Constraint6_55_0:   = 0
 Constraint6_55_1:   = 0
 Constraint6_56_0:   = 0
 Constraint6_56_1:   = 0
 Constraint6_57_0:   = 0
 Constraint6_57_1:   = 0
 Constraint6_58_0:   = 0
 Constraint6_58_1:   = 0
 Constraint6_59_0:   = 0
 Constraint6_59_1:   = 0
 Constraint6_60_0:   = 0
 Constraint6_60_1:   = 0
 Constraint6_61_0:   = 0
 Constraint6_61_1:   = 0
 Constraint6_62_0:   = 0
 Constraint6_62_1:   = 0
 Constraint6_63_0:   = 0
 Constraint6_63_1:   = 0
 Constraint6_64_0:   = 0
 Constraint6_64_1:   = 0
 Constraint6_65_0:   = 0
 Constraint6_65_1:   = 0
 Constraint6_66_0:   = 0
 Constraint6_66_1:   = 0
 Constraint6_67_0:   = 0
 Constraint6_67_1:   = 0
 Constraint6_68_0:   = 0
 Constraint6_68_1:   = 0
 Constraint6_69_0:   = 0
 Constraint6_69_1:   = 0
 Constraint6_70_0:  - x(0,70,0) - x(21,70,0) - x(22,70,0) + x(70,111,0)
                    + x(70,187,0) - x(185,70,0)  = 0
 Constraint6_70_1:  - x(0,70,1) - x(21,70,1) - x(22,70,1) + x(70,111,1)
                    + x(70,188,1) - x(186,70,1)  = 0
 Constraint6_71_0:  - x(0,71,0) - x(21,71,0) - x(22,71,0) + x(71,111,0)
                    + x(71,148,0) + x(71,187,0) - x(185,71,0)  = 0
 Constraint6_71_1:  - x(0,71,1) - x(21,71,1) - x(22,71,1) + x(71,111,1)
                    + x(71,148,1) + x(71,188,1) - x(186,71,1)  = 0
 Constraint6_72_0:   = 0
 Constraint6_72_1:   = 0
 Constraint6_73_0:   = 0
 Constraint6_73_1:   = 0
 Constraint6_74_0:  - x(0,74,0) - x(21,74,0) - x(22,74,0) + x(74,111,0)
                    + x(74,144,0) + x(74,145,0) + x(74,187,0) - x(185,74,0)
                     = 0
 Constraint6_74_1:  - x(0,74,1) - x(21,74,1) - x(22,74,1) + x(74,111,1)
                    + x(74,144,1) + x(74,145,1) + x(74,188,1) - x(186,74,1)
                     = 0
 Constraint6_75_0:   = 0
 Constraint6_75_1:   = 0
 Constraint6_76_0:   = 0
 Constraint6_76_1:   = 0
 Constraint6_77_0:   = 0
 Constraint6_77_1:   = 0
 Constraint6_78_0:   = 0
 Constraint6_78_1:   = 0
 Constraint6_79_0:   = 0
 Constraint6_79_1:   = 0
 Constraint6_80_0:   = 0
 Constraint6_80_1:   = 0
 Constraint6_81_0:   = 0
 Constraint6_81_1:   = 0
 Constraint6_82_0:   = 0
 Constraint6_82_1:   = 0
 Constraint6_83_0:   = 0
 Constraint6_83_1:   = 0
 Constraint6_84_0:   = 0
 Constraint6_84_1:   = 0
 Constraint6_85_0:   = 0
 Constraint6_85_1:   = 0
 Constraint6_86_0:   = 0
 Constraint6_86_1:   = 0
 Constraint6_87_0:   = 0
 Constraint6_87_1:   = 0
 Constraint6_88_0:   = 0
 Constraint6_88_1:   = 0
 Constraint6_89_0:   = 0
 Constraint6_89_1:   = 0
 Constraint6_90_0:   = 0
 Constraint6_90_1:   = 0
 Constraint6_91_0:   = 0
 Constraint6_91_1:   = 0
 Constraint6_92_0:   = 0
 Constraint6_92_1:   = 0
 Constraint6_93_0:   = 0
 Constraint6_93_1:   = 0
 Constraint6_94_0:   = 0
 Constraint6_94_1:   = 0
 Constraint6_95_0:   = 0
 Constraint6_95_1:   = 0
 Constraint6_96_0:   = 0
 Constraint6_96_1:   = 0
 Constraint6_97_0:   = 0
 Constraint6_97_1:   = 0
 Constraint6_98_0:   = 0
 Constraint6_98_1:   = 0
 Constraint6_99_0:   = 0
 Constraint6_99_1:   = 0
 Constraint6_100_0:  = 0
 Constraint6_100_1:  = 0
 Constraint6_101_0:  = 0
 Constraint6_101_1:  = 0
 Constraint6_102_0:  = 0
 Constraint6_102_1:  = 0
 Constraint6_103_0:  = 0
 Constraint6_103_1:  = 0
 Constraint6_104_0:  = 0
 Constraint6_104_1:  = 0
 Constraint6_105_0:  = 0
 Constraint6_105_1:  = 0
 Constraint6_106_0:  = 0
 Constraint6_106_1:  = 0
 Constraint6_107_0: - x(0,107,0) - x(21,107,0) - x(22,107,0) + x(107,111,0)
                    + x(107,187,0) - x(185,107,0)  = 0
 Constraint6_107_1: - x(0,107,1) - x(21,107,1) - x(22,107,1) + x(107,111,1)
                    + x(107,188,1) - x(186,107,1)  = 0
 Constraint6_108_0: - x(0,108,0) - x(21,108,0) - x(22,108,0) + x(108,111,0)
                    + x(108,187,0) - x(185,108,0)  = 0
 Constraint6_108_1: - x(0,108,1) - x(21,108,1) - x(22,108,1) + x(108,111,1)
                    + x(108,188,1) - x(186,108,1)  = 0
 Constraint6_109_0:  = 0
 Constraint6_109_1:  = 0
 Constraint6_110_0:  = 0
 Constraint6_110_1:  = 0
 Constraint6_111_0: - x(0,111,0) - x(21,111,0) - x(22,111,0) - x(37,111,0)
                    - x(70,111,0) - x(71,111,0) - x(74,111,0) - x(107,111,0)
                    - x(108,111,0) + x(111,187,0) - x(148,111,0) - x(181,111,0)
                    - x(182,111,0) - x(185,111,0)  = 0
 Constraint6_111_1: - x(0,111,1) - x(21,111,1) - x(22,111,1) - x(37,111,1)
                    - x(70,111,1) - x(71,111,1) - x(74,111,1) - x(107,111,1)
                    - x(108,111,1) + x(111,188,1) - x(148,111,1) - x(181,111,1)
                    - x(182,111,1) - x(186,111,1)  = 0
 Constraint6_112_0:  = 0
 Constraint6_112_1:  = 0
 Constraint6_113_0:  = 0
 Constraint6_113_1:  = 0
 Constraint6_114_0:  = 0
 Constraint6_114_1:  = 0
 Constraint6_115_0:  = 0
 Constraint6_115_1:  = 0
 Constraint6_116_0:  = 0
 Constraint6_116_1:  = 0
 Constraint6_117_0:  = 0
 Constraint6_117_1:  = 0
 Constraint6_118_0:  = 0
 Constraint6_118_1:  = 0
 Constraint6_119_0:  = 0
 Constraint6_119_1:  = 0
 Constraint6_120_0:  = 0
 Constraint6_120_1:  = 0
 Constraint6_121_0:  = 0
 Constraint6_121_1:  = 0
 Constraint6_122_0:  = 0
 Constraint6_122_1:  = 0
 Constraint6_123_0:  = 0
 Constraint6_123_1:  = 0
 Constraint6_124_0:  = 0
 Constraint6_124_1:  = 0
 Constraint6_125_0:  = 0
 Constraint6_125_1:  = 0
 Constraint6_126_0:  = 0
 Constraint6_126_1:  = 0
 Constraint6_127_0:  = 0
 Constraint6_127_1:  = 0
 Constraint6_128_0:  = 0
 Constraint6_128_1:  = 0
 Constraint6_129_0:  = 0
 Constraint6_129_1:  = 0
 Constraint6_130_0:  = 0
 Constraint6_130_1:  = 0
 Constraint6_131_0:  = 0
 Constraint6_131_1:  = 0
 Constraint6_132_0:  = 0
 Constraint6_132_1:  = 0
 Constraint6_133_0:  = 0
 Constraint6_133_1:  = 0
 Constraint6_134_0:  = 0
 Constraint6_134_1:  = 0
 Constraint6_135_0:  = 0
 Constraint6_135_1:  = 0
 Constraint6_136_0:  = 0
 Constraint6_136_1:  = 0
 Constraint6_137_0:  = 0
 Constraint6_137_1:  = 0
 Constraint6_138_0:  = 0
 Constraint6_138_1:  = 0
 Constraint6_139_0:  = 0
 Constraint6_139_1:  = 0
 Constraint6_140_0:  = 0
 Constraint6_140_1:  = 0
 Constraint6_141_0:  = 0
 Constraint6_141_1:  = 0
 Constraint6_142_0:  = 0
 Constraint6_142_1:  = 0
 Constraint6_143_0:  = 0
 Constraint6_143_1:  = 0
 Constraint6_144_0: - x(0,144,0) - x(21,144,0) - x(22,144,0) - x(37,144,0)
                    - x(74,144,0) + x(144,187,0) - x(148,144,0) - x(185,144,0)
                     = 0
 Constraint6_144_1: - x(0,144,1) - x(21,144,1) - x(22,144,1) - x(37,144,1)
                    - x(74,144,1) + x(144,188,1) - x(148,144,1) - x(186,144,1)
                     = 0
 Constraint6_145_0: - x(0,145,0) - x(21,145,0) - x(22,145,0) - x(37,145,0)
                    - x(74,145,0) + x(145,187,0) - x(148,145,0) - x(185,145,0)
                     = 0
 Constraint6_145_1: - x(0,145,1) - x(21,145,1) - x(22,145,1) - x(37,145,1)
                    - x(74,145,1) + x(145,188,1) - x(148,145,1) - x(186,145,1)
                     = 0
 Constraint6_146_0:  = 0
 Constraint6_146_1:  = 0
 Constraint6_147_0:  = 0
 Constraint6_147_1:  = 0
 Constraint6_148_0: - x(0,148,0) - x(21,148,0) - x(22,148,0) - x(37,148,0)
                    - x(71,148,0) + x(148,111,0) + x(148,144,0) + x(148,145,0)
                    + x(148,187,0) - x(185,148,0)  = 0
 Constraint6_148_1: - x(0,148,1) - x(21,148,1) - x(22,148,1) - x(37,148,1)
                    - x(71,148,1) + x(148,111,1) + x(148,144,1) + x(148,145,1)
                    + x(148,188,1) - x(186,148,1)  = 0
 Constraint6_149_0:  = 0
 Constraint6_149_1:  = 0
 Constraint6_150_0:  = 0
 Constraint6_150_1:  = 0
 Constraint6_151_0:  = 0
 Constraint6_151_1:  = 0
 Constraint6_152_0:  = 0
 Constraint6_152_1:  = 0
 Constraint6_153_0:  = 0
 Constraint6_153_1:  = 0
 Constraint6_154_0:  = 0
 Constraint6_154_1:  = 0
 Constraint6_155_0:  = 0
 Constraint6_155_1:  = 0
 Constraint6_156_0:  = 0
 Constraint6_156_1:  = 0
 Constraint6_157_0:  = 0
 Constraint6_157_1:  = 0
 Constraint6_158_0:  = 0
 Constraint6_158_1:  = 0
 Constraint6_159_0:  = 0
 Constraint6_159_1:  = 0
 Constraint6_160_0:  = 0
 Constraint6_160_1:  = 0
 Constraint6_161_0:  = 0
 Constraint6_161_1:  = 0
 Constraint6_162_0:  = 0
 Constraint6_162_1:  = 0
 Constraint6_163_0:  = 0
 Constraint6_163_1:  = 0
 Constraint6_164_0:  = 0
 Constraint6_164_1:  = 0
 Constraint6_165_0:  = 0
 Constraint6_165_1:  = 0
 Constraint6_166_0:  = 0
 Constraint6_166_1:  = 0
 Constraint6_167_0:  = 0
 Constraint6_167_1:  = 0
 Constraint6_168_0:  = 0
 Constraint6_168_1:  = 0
 Constraint6_169_0:  = 0
 Constraint6_169_1:  = 0
 Constraint6_170_0:  = 0
 Constraint6_170_1:  = 0
 Constraint6_171_0:  = 0
 Constraint6_171_1:  = 0
 Constraint6_172_0:  = 0
 Constraint6_172_1:  = 0
 Constraint6_173_0:  = 0
 Constraint6_173_1:  = 0
 Constraint6_174_0:  = 0
 Constraint6_174_1:  = 0
 Constraint6_175_0:  = 0
 Constraint6_175_1:  = 0
 Constraint6_176_0:  = 0
 Constraint6_176_1:  = 0
 Constraint6_177_0:  = 0
 Constraint6_177_1:  = 0
 Constraint6_178_0:  = 0
 Constraint6_178_1:  = 0
 Constraint6_179_0:  = 0
 Constraint6_179_1:  = 0
 Constraint6_180_0:  = 0
 Constraint6_180_1:  = 0
 Constraint6_181_0: - x(0,181,0) - x(21,181,0) - x(22,181,0) - x(37,181,0)
                    + x(181,111,0) + x(181,187,0) - x(185,181,0)  = 0
 Constraint6_181_1: - x(0,181,1) - x(21,181,1) - x(22,181,1) - x(37,181,1)
                    + x(181,111,1) + x(181,188,1) - x(186,181,1)  = 0
 Constraint6_182_0: - x(0,182,0) - x(21,182,0) - x(22,182,0) + x(182,111,0)
                    + x(182,187,0) - x(185,182,0)  = 0
 Constraint6_182_1: - x(0,182,1) - x(21,182,1) - x(22,182,1) + x(182,111,1)
                    + x(182,188,1) - x(186,182,1)  = 0
 Constraint6_183_0:  = 0
 Constraint6_183_1:  = 0
 Constraint6_184_0:  = 0
 Constraint6_184_1:  = 0
Bounds
 0 <= x(0,37,0) <= 1
 0 <= x(0,37,1) <= 1
 0 <= x(0,70,0) <= 1
 0 <= x(0,70,1) <= 1
 0 <= x(0,71,0) <= 1
 0 <= x(0,71,1) <= 1
 0 <= x(0,74,0) <= 1
 0 <= x(0,74,1) <= 1
 0 <= x(0,107,0) <= 1
 0 <= x(0,107,1) <= 1
 0 <= x(0,108,0) <= 1
 0 <= x(0,108,1) <= 1
 0 <= x(0,111,0) <= 1
 0 <= x(0,111,1) <= 1
 0 <= x(0,144,0) <= 1
 0 <= x(0,144,1) <= 1
 0 <= x(0,145,0) <= 1
 0 <= x(0,145,1) <= 1
 0 <= x(0,148,0) <= 1
 0 <= x(0,148,1) <= 1
 0 <= x(0,181,0) <= 1
 0 <= x(0,181,1) <= 1
 0 <= x(0,182,0) <= 1
 0 <= x(0,182,1) <= 1
 0 <= x(0,187,0) <= 1
 0 <= x(0,188,1) <= 1
 0 <= x(21,37,0) <= 1
 0 <= x(21,37,1) <= 1
 0 <= x(21,70,0) <= 1
 0 <= x(21,70,1) <= 1
 0 <= x(21,71,0) <= 1
 0 <= x(21,71,1) <= 1
 0 <= x(21,74,0) <= 1
 0 <= x(21,74,1) <= 1
 0 <= x(21,107,0) <= 1
 0 <= x(21,107,1) <= 1
 0 <= x(21,108,0) <= 1
 0 <= x(21,108,1) <= 1
 0 <= x(21,111,0) <= 1
 0 <= x(21,111,1) <= 1
 0 <= x(21,144,0) <= 1
 0 <= x(21,144,1) <= 1
 0 <= x(21,145,0) <= 1
 0 <= x(21,145,1) <= 1
 0 <= x(21,148,0) <= 1
 0 <= x(21,148,1) <= 1
 0 <= x(21,181,0) <= 1
 0 <= x(21,181,1) <= 1
 0 <= x(21,182,0) <= 1
 0 <= x(21,182,1) <= 1
 0 <= x(21,187,0) <= 1
 0 <= x(21,188,1) <= 1
 0 <= x(22,37,0) <= 1
 0 <= x(22,37,1) <= 1
 0 <= x(22,70,0) <= 1
 0 <= x(22,70,1) <= 1
 0 <= x(22,71,0) <= 1
 0 <= x(22,71,1) <= 1
 0 <= x(22,74,0) <= 1
 0 <= x(22,74,1) <= 1
 0 <= x(22,107,0) <= 1
 0 <= x(22,107,1) <= 1
 0 <= x(22,108,0) <= 1
 0 <= x(22,108,1) <= 1
 0 <= x(22,111,0) <= 1
 0 <= x(22,111,1) <= 1
 0 <= x(22,144,0) <= 1
 0 <= x(22,144,1) <= 1
 0 <= x(22,145,0) <= 1
 0 <= x(22,145,1) <= 1
 0 <= x(22,148,0) <= 1
 0 <= x(22,148,1) <= 1
 0 <= x(22,181,0) <= 1
 0 <= x(22,181,1) <= 1
 0 <= x(22,182,0) <= 1
 0 <= x(22,182,1) <= 1
 0 <= x(22,187,0) <= 1
 0 <= x(22,188,1) <= 1
 0 <= x(37,111,0) <= 1
 0 <= x(37,111,1) <= 1
 0 <= x(37,144,0) <= 1
 0 <= x(37,144,1) <= 1
 0 <= x(37,145,0) <= 1
 0 <= x(37,145,1) <= 1
 0 <= x(37,148,0) <= 1
 0 <= x(37,148,1) <= 1
 0 <= x(37,181,0) <= 1
 0 <= x(37,181,1) <= 1
 0 <= x(37,187,0) <= 1
 0 <= x(37,188,1) <= 1
 0 <= x(70,111,0) <= 1
 0 <= x(70,111,1) <= 1
 0 <= x(70,187,0) <= 1
 0 <= x(70,188,1) <= 1
 0 <= x(71,111,0) <= 1
 0 <= x(71,111,1) <= 1
 0 <= x(71,148,0) <= 1
 0 <= x(71,148,1) <= 1
 0 <= x(71,187,0) <= 1
 0 <= x(71,188,1) <= 1
 0 <= x(74,111,0) <= 1
 0 <= x(74,111,1) <= 1
 0 <= x(74,144,0) <= 1
 0 <= x(74,144,1) <= 1
 0 <= x(74,145,0) <= 1
 0 <= x(74,145,1) <= 1
 0 <= x(74,187,0) <= 1
 0 <= x(74,188,1) <= 1
 0 <= x(107,111,0) <= 1
 0 <= x(107,111,1) <= 1
 0 <= x(107,187,0) <= 1
 0 <= x(107,188,1) <= 1
 0 <= x(108,111,0) <= 1
 0 <= x(108,111,1) <= 1
 0 <= x(108,187,0) <= 1
 0 <= x(108,188,1) <= 1
 0 <= x(111,187,0) <= 1
 0 <= x(111,188,1) <= 1
 0 <= x(144,187,0) <= 1
 0 <= x(144,188,1) <= 1
 0 <= x(145,187,0) <= 1
 0 <= x(145,188,1) <= 1
 0 <= x(148,111,0) <= 1
 0 <= x(148,111,1) <= 1
 0 <= x(148,144,0) <= 1
 0 <= x(148,144,1) <= 1
 0 <= x(148,145,0) <= 1
 0 <= x(148,145,1) <= 1
 0 <= x(148,187,0) <= 1
 0 <= x(148,188,1) <= 1
 0 <= x(181,111,0) <= 1
 0 <= x(181,111,1) <= 1
 0 <= x(181,187,0) <= 1
 0 <= x(181,188,1) <= 1
 0 <= x(182,111,0) <= 1
 0 <= x(182,111,1) <= 1
 0 <= x(182,187,0) <= 1
 0 <= x(182,188,1) <= 1
 0 <= x(185,0,0) <= 1
 0 <= x(185,21,0) <= 1
 0 <= x(185,22,0) <= 1
 0 <= x(185,37,0) <= 1
 0 <= x(185,70,0) <= 1
 0 <= x(185,71,0) <= 1
 0 <= x(185,74,0) <= 1
 0 <= x(185,107,0) <= 1
 0 <= x(185,108,0) <= 1
 0 <= x(185,111,0) <= 1
 0 <= x(185,144,0) <= 1
 0 <= x(185,145,0) <= 1
 0 <= x(185,148,0) <= 1
 0 <= x(185,181,0) <= 1
 0 <= x(185,182,0) <= 1
 0 <= x(185,187,0) <= 1
 0 <= x(186,0,1) <= 1
 0 <= x(186,21,1) <= 1
 0 <= x(186,22,1) <= 1
 0 <= x(186,37,1) <= 1
 0 <= x(186,70,1) <= 1
 0 <= x(186,71,1) <= 1
 0 <= x(186,74,1) <= 1
 0 <= x(186,107,1) <= 1
 0 <= x(186,108,1) <= 1
 0 <= x(186,111,1) <= 1
 0 <= x(186,144,1) <= 1
 0 <= x(186,145,1) <= 1
 0 <= x(186,148,1) <= 1
 0 <= x(186,181,1) <= 1
 0 <= x(186,182,1) <= 1
 0 <= x(186,188,1) <= 1
 9 <= u(0) <= 19
 9 <= u(1) <= 19
 9 <= uf(0) <= 19
 9 <= uf(1) <= 19
Binaries
 x(0,37,0)  x(0,37,1)  x(0,70,0)  x(0,70,1)  x(0,71,0)  x(0,71,1)  x(0,74,0) 
 x(0,74,1)  x(0,107,0)  x(0,107,1)  x(0,108,0)  x(0,108,1)  x(0,111,0) 
 x(0,111,1)  x(0,144,0)  x(0,144,1)  x(0,145,0)  x(0,145,1)  x(0,148,0) 
 x(0,148,1)  x(0,181,0)  x(0,181,1)  x(0,182,0)  x(0,182,1)  x(0,187,0) 
 x(0,188,1)  x(21,37,0)  x(21,37,1)  x(21,70,0)  x(21,70,1)  x(21,71,0) 
 x(21,71,1)  x(21,74,0)  x(21,74,1)  x(21,107,0)  x(21,107,1)  x(21,108,0) 
 x(21,108,1)  x(21,111,0)  x(21,111,1)  x(21,144,0)  x(21,144,1)  x(21,145,0) 
 x(21,145,1)  x(21,148,0)  x(21,148,1)  x(21,181,0)  x(21,181,1)  x(21,182,0) 
 x(21,182,1)  x(21,187,0)  x(21,188,1)  x(22,37,0)  x(22,37,1)  x(22,70,0) 
 x(22,70,1)  x(22,71,0)  x(22,71,1)  x(22,74,0)  x(22,74,1)  x(22,107,0) 
 x(22,107,1)  x(22,108,0)  x(22,108,1)  x(22,111,0)  x(22,111,1)  x(22,144,0) 
 x(22,144,1)  x(22,145,0)  x(22,145,1)  x(22,148,0)  x(22,148,1)  x(22,181,0) 
 x(22,181,1)  x(22,182,0)  x(22,182,1)  x(22,187,0)  x(22,188,1)  x(37,111,0) 
 x(37,111,1)  x(37,144,0)  x(37,144,1)  x(37,145,0)  x(37,145,1)  x(37,148,0) 
 x(37,148,1)  x(37,181,0)  x(37,181,1)  x(37,187,0)  x(37,188,1)  x(70,111,0) 
 x(70,111,1)  x(70,187,0)  x(70,188,1)  x(71,111,0)  x(71,111,1)  x(71,148,0) 
 x(71,148,1)  x(71,187,0)  x(71,188,1)  x(74,111,0)  x(74,111,1)  x(74,144,0) 
 x(74,144,1)  x(74,145,0)  x(74,145,1)  x(74,187,0)  x(74,188,1)  x(107,111,0) 
 x(107,111,1)  x(107,187,0)  x(107,188,1)  x(108,111,0)  x(108,111,1) 
 x(108,187,0)  x(108,188,1)  x(111,187,0)  x(111,188,1)  x(144,187,0) 
 x(144,188,1)  x(145,187,0)  x(145,188,1)  x(148,111,0)  x(148,111,1) 
 x(148,144,0)  x(148,144,1)  x(148,145,0)  x(148,145,1)  x(148,187,0) 
 x(148,188,1)  x(181,111,0)  x(181,111,1)  x(181,187,0)  x(181,188,1) 
 x(182,111,0)  x(182,111,1)  x(182,187,0)  x(182,188,1)  x(185,0,0) 
 x(185,21,0)  x(185,22,0)  x(185,37,0)  x(185,70,0)  x(185,71,0)  x(185,74,0) 
 x(185,107,0)  x(185,108,0)  x(185,111,0)  x(185,144,0)  x(185,145,0) 
 x(185,148,0)  x(185,181,0)  x(185,182,0)  x(185,187,0)  x(186,0,1) 
 x(186,21,1)  x(186,22,1)  x(186,37,1)  x(186,70,1)  x(186,71,1)  x(186,74,1) 
 x(186,107,1)  x(186,108,1)  x(186,111,1)  x(186,144,1)  x(186,145,1) 
 x(186,148,1)  x(186,181,1)  x(186,182,1)  x(186,188,1) 
End
